50 3194
524 262 917 1179 520 1179 650 780 1170 650 1048 1048 1179 1040 1040 520 524 130 262 1170 524 262 910 786 780 130 1170 393 1300 1170 262 1310 910 655 910 910 260 260 390 780 910 390 1170 1310 262 131 130 393 520 1300 
560 280 980 1260 484 1260 605 726 1089 605 1120 1120 1260 968 968 484 560 121 280 1089 560 280 847 840 726 121 1089 420 1210 1089 280 1400 847 700 847 847 242 242 363 726 847 363 1089 1400 280 140 121 420 484 1210 
